scripts/L1data/localhap/group0.lp
\Problem name: 

Minimize
obj: 3.69324 x17 + 3.69324 x19 + 3.69324 x20 + 3.69324 x21 + 3.69324 x22 + 3.69324 x23 + 3.69324 x24 + 3.69324 x25 + 3.69324 x26 + 0.39665 x27
 + 0.39665 x28 + 0.39665 x29 + 0.39665 x30 + 0.39665 x31 + 0.39665 x32 + 0.39665 x33 + 0.39665 x34 + 0.39665 x35 + 0.39665 x36 + 0.39665 x37
 + 0.39665 x38 + 0.39665 x39 + 0.39665 x40 + 3.69324 x41 + 0.39665 x42 + 3.69324 x43 + 3.69324 x44
Subject To
cons0:  30 x0 + x27 >= 30
cons1:  30 x0 - x27 <= 30
cons2:  x0 - x11 - x15 = 0
cons3:  x0 - x6 - x9 = 0
cons4:  30 x1 + x28 >= 30
cons5:  30 x1 - x28 <= 30
cons6:  x1 - x7 - x9 = 0
cons7:  x1 - x5 - x10 = 0
cons8:  30 x2 + x29 >= 30
cons9:  30 x2 - x29 <= 30
cons10:  x2 - x8 - x10 = 0
cons11:  x2 - x11 - x14 = 0
cons12:  30 x3 + x30 >= 30
cons13:  30 x3 - x30 <= 30
cons14:  x3 - x13 - x14 = 0
cons15:  x3 - x5 - x6 - x12 = 0
cons16:  30 x4 + x31 >= 30
cons17:  30 x4 - x31 <= 30
cons18:  x4 - x7 - x8 - x12 = 0
cons19:  x4 - x13 - x15 = 0
cons20:  30 x5 -30.05000 x16 + x32 >= 0
cons21:  30 x5 -30.05000 x16 - x32 <= 0
cons22:  x5 -999999 x16 <= 0
cons23:  x5 - x16 >= 0
cons24:  30 x6 -30.05000 x17 + x33 >= 0
cons25:  30 x6 -30.05000 x17 - x33 <= 0
cons26:  x6 -999999 x17 <= 0
cons27:  x6 - x17 >= 0
cons28:  30 x7 -30.05000 x18 + x34 >= 0
cons29:  30 x7 -30.05000 x18 - x34 <= 0
cons30:  x7 -999999 x18 <= 0
cons31:  x7 - x18 >= 0
cons32:  30 x8 -30.05000 x19 + x35 >= 0
cons33:  30 x8 -30.05000 x19 - x35 <= 0
cons34:  x8 -999999 x19 <= 0
cons35:  x8 - x19 >= 0
cons36:  30 x9 -30.05000 x20 + x36 >= 0
cons37:  30 x9 -30.05000 x20 - x36 <= 0
cons38:  x9 -999999 x20 <= 0
cons39:  x9 - x20 >= 0
cons40:  30 x10 -30.05000 x21 + x37 >= 0
cons41:  30 x10 -30.05000 x21 - x37 <= 0
cons42:  x10 -999999 x21 <= 0
cons43:  x10 - x21 >= 0
cons44:  30 x11 -30.05000 x22 + x38 >= 0
cons45:  30 x11 -30.05000 x22 - x38 <= 0
cons46:  x11 -999999 x22 <= 0
cons47:  x11 - x22 >= 0
cons48:  30 x12 -30.05000 x23 + x39 >= 0
cons49:  30 x12 -30.05000 x23 - x39 <= 0
cons50:  x12 -999999 x23 <= 0
cons51:  x12 - x23 >= 0
cons52:  30 x13 -30.05000 x24 + x40 >= 0
cons53:  30 x13 -30.05000 x24 - x40 <= 0
cons54:  x13 -999999 x24 <= 0
cons55:  x13 - x24 >= 0
cons56:  30 x14 -1.05000 x25 + x41 >= 0
cons57:  30 x14 -1.05000 x25 - x41 <= 0
cons58:  x14 -999999 x25 <= 0
cons59:  x14 - x25 >= 0
cons60:  30 x15 -30.05000 x26 + x42 >= 0
cons61:  30 x15 -30.05000 x26 - x42 <= 0
cons62:  x15 -999999 x26 <= 0
cons63:  x15 - x26 >= 0
cons64:  x0 - x43 = 1
cons65:  x4 - x44 = 1
Bounds
 1 <= x0
 1 <= x1
 1 <= x2
 1 <= x3
 1 <= x4
 1 <= x16 <= 1
 0 <= x17 <= 1
 1 <= x18 <= 1
 0 <= x19 <= 1
 0 <= x20 <= 1
 0 <= x21 <= 1
 0 <= x22 <= 1
 0 <= x23 <= 1
 0 <= x24 <= 1
 0 <= x25 <= 1
 0 <= x26 <= 1
Integers
x0 x1 x2 x3 x4 x5 x6 x7 x8 x9 
x10 x11 x12 x13 x14 x15 x16 x17 x18 x19 
x20 x21 x22 x23 x24 x25 x26 
End
