scripts/L1data/localhap/group0.lp.sol
Optimal - objective value 26.79145500
      0 x17                    0                 3.69324
      1 x19                    0                 3.69324
      2 x20                    1               15.612573
      3 x21                    1               15.612573
      4 x22                    1               15.612573
      5 x23                    0                 3.69324
      6 x24                    1               15.612573
      7 x25                    0                 3.69324
      8 x26                    0                 3.69324
      9 x27                    0                 0.39665
     10 x28                   30                       0
     11 x29                    0                 0.39665
     12 x30                    0                 0.39665
     13 x31                    0                 0.39665
     14 x32                 0.05                       0
     15 x33                    0                 0.39665
     16 x34                 0.05                       0
     17 x35                    0                 0.39665
     18 x36                 0.05                       0
     19 x37                 0.05                       0
     20 x38                 0.05                       0
     21 x39                    0                 0.39665
     22 x40                 0.05                       0
     23 x41                    0                 3.69324
     24 x42                    0                 0.39665
     25 x43                    0                 3.69324
     26 x44                    0                 3.69324
     27 x0                     1                       0
     28 x11                    1                -11.8995
     29 x15                    0                       0
     30 x6                     0                       0
     31 x9                     1                -11.8995
     32 x1                     2                 11.8995
     33 x7                     1                -11.8995
     34 x5                     1                -11.8995
     35 x10                    1                -11.8995
     36 x2                     1                       0
     37 x8                     0                       0
     38 x14                    0                       0
     39 x3                     1                       0
     40 x13                    1                -11.8995
     41 x12                    0                       0
     42 x4                     1                       0
     43 x16                    1               11.919332
     44 x18                    1               11.919332
